unknown
(model
; cardinality of BoundSet is 2
(declare-sort BoundSet 0)
; rep: @uc_BoundSet_0
; rep: @uc_BoundSet_1
; cardinality of UnboundSet is 1
(declare-sort UnboundSet 0)
(declare-fun groundTerm_3 () UnboundSet)
(define-fun IsASpeaker ((BOUND_VARIABLE_394 BoundSet)) Bool true)
(define-fun IsAStudent ((BOUND_VARIABLE_394 BoundSet)) Bool true)
(define-fun IsSpeaker ((BOUND_VARIABLE_394 BoundSet)) Bool false)
(define-fun CannotReceive ((BOUND_VARIABLE_394 BoundSet)) Bool false)
)
sat
(model
; cardinality of BoundSet is 1
(declare-sort BoundSet 0)
; rep: @uc_BoundSet_0
; cardinality of UnboundSet is 1
(declare-sort UnboundSet 0)
(declare-fun groundTerm_5 () UnboundSet)
(define-fun IsASpeaker ((BOUND_VARIABLE_422 BoundSet)) Bool true)
(define-fun IsAStudent ((BOUND_VARIABLE_422 BoundSet)) Bool true)
(define-fun IsSpeaker ((BOUND_VARIABLE_422 BoundSet)) Bool false)
(define-fun CannotReceive ((BOUND_VARIABLE_422 BoundSet)) Bool false)
)
